#######################
Slurm job id: 17497813_214
Running on machine: p16
Running cmd: /nfs/shared/static-builds/gurobi1202 SOFTMEMLIMIT=125 MIPFocus=3 Presolve=1 TimeLimit=500 seed=13 /nfs/models/miplib2010/k16x240.mps.bz2
#######################
Set parameter TimeLimit to value 500
Set parameter SoftMemLimit to value 125
Set parameter MIPFocus to value 3
Set parameter LogFile to value 1202-MIPFocus3-Presolve1-TimeLimit500-k16x240-3.log
Set parameter Presolve to value 1
Set parameter Seed to value 13
Using license file /opt/gurobi/gurobi.lic

Gurobi Optimizer version 12.0.2 build v12.0.2rc0 (linux64 - "Ubuntu 22.04.4 LTS")
Copyright (c) 2025, Gurobi Optimization, LLC

Read MPS format model from file /nfs/models/miplib2010/k16x240.mps.bz2
Reading time = 0.00 seconds
k16x240: 256 rows, 480 columns, 960 nonzeros

Using Gurobi shared library /nfs/shared/static-builds/gurobi1202

CPU model: Intel(R) Xeon(R) E-2388G CPU @ 3.20GHz, instruction set [SSE2|AVX|AVX2|AVX512]
Thread count: 8 physical cores, 16 logical processors, using up to 16 threads

Non-default parameters:
TimeLimit  500
SoftMemLimit  125
MIPFocus  3
Presolve  1
Seed  13

Optimize a model with 256 rows, 480 columns and 960 nonzeros
Model fingerprint: 0x4e80885f
Variable types: 240 continuous, 240 integer (240 binary)
Coefficient statistics:
  Matrix range     [1e+00, 1e+03]
  Objective range  [1e+00, 1e+03]
  Bounds range     [1e+00, 1e+03]
  RHS range        [4e+00, 4e+02]
Found heuristic solution: objective 25767.000000
Presolve time: 0.00s
Presolved: 256 rows, 480 columns, 960 nonzeros
Variable types: 240 continuous, 240 integer (240 binary)

Root relaxation: objective 2.769838e+03, 51 iterations, 0.00 seconds (0.00 work units)

    Nodes    |    Current Node    |     Objective Bounds      |     Work
 Expl Unexpl |  Obj  Depth IntInf | Incumbent    BestBd   Gap | It/Node Time

     0     0 2769.83800    0   14 25767.0000 2769.83800  89.3%     -    0s
H    0     0                    11359.000000 2769.83800  75.6%     -    0s
H    0     0                    11195.000000 2769.83800  75.3%     -    0s
H    0     0                    11088.000000 2769.83800  75.0%     -    0s
H    0     0                    11074.000000 2769.83800  75.0%     -    0s
H    0     0                    10916.000000 8116.87580  25.6%     -    0s
     0     0 8116.87580    0   26 10916.0000 8116.87580  25.6%     -    0s
H    0     0                    10838.000000 8182.85928  24.5%     -    0s
H    0     0                    10836.000000 8182.85928  24.5%     -    0s
H    0     0                    10826.000000 8182.85928  24.4%     -    0s
H    0     0                    10806.000000 8182.85928  24.3%     -    0s
H    0     0                    10750.000000 8182.85928  23.9%     -    0s
     0     0 8741.28533    0   24 10750.0000 8741.28533  18.7%     -    0s
     0     0 8955.29750    0   31 10750.0000 8955.29750  16.7%     -    0s
     0     0 9051.23269    0   37 10750.0000 9051.23269  15.8%     -    0s
     0     0 9051.23269    0   37 10750.0000 9051.23269  15.8%     -    0s
     0     0 9116.28485    0   31 10750.0000 9116.28485  15.2%     -    0s
     0     0 9247.00990    0   36 10750.0000 9247.00990  14.0%     -    0s
     0     0 9247.00990    0   36 10750.0000 9247.00990  14.0%     -    0s
     0     2 9247.00990    0   36 10750.0000 9247.00990  14.0%     -    0s
H   40    60                    10748.000000 9274.58942  13.7%  71.2    0s
H   45    60                    10678.000000 9274.58942  13.1%  68.5    0s
H  100   124                    10674.000000 9326.88164  12.6%  57.8    0s
  5390  3525 10379.4514   29   33 10674.0000 10318.3896  3.33%  78.0    5s
 21568  7262     cutoff   27      10674.0000 10554.8625  1.12%  52.1   10s

Cutting planes:
  Lift-and-project: 9
  Cover: 2
  Implied bound: 8
  Dual implied bound: 8
  MIR: 117
  Flow cover: 504
  Flow path: 31
  Zero half: 38
  Network: 22
  Relax-and-lift: 1

Explored 35757 nodes (1366892 simplex iterations) in 11.64 seconds (16.00 work units)
Thread count was 16 (of 16 available processors)

Solution count 10: 10674 10678 10748 ... 11074

Optimal solution found (tolerance 1.00e-04)
Best objective 1.067400000000e+04, best bound 1.067300000000e+04, gap 0.0094%
